File : Instances/p68
Use 137 s

22405

0 0 1 1 0 1 0 0 1 0 1 1 0 0 1 1 0 0 1 1 0 0 0 0 1 1 0 1 0 1 
18 19 2 27 2 11 15 27 18 27 29 19 10 3 19 18 3 10 27 27 18 24 5 24 10 18 27 14 29 2 19 19 19 24 27 19 8 8 24 15 18 8 19 29 8 19 3 2 19 14 24 24 24 15 8 19 11 8 18 25 29 2 25 8 3 11 5 14 19 25 18 11 19 8 5 10 10 5 8 24 10 5 8 25 29 10 19 5 27 25 11 19 25 25 2 3 11 11 2 11 14 15 25 18 29 24 29 24 27 3 19 29 27 11 11 8 11 25 14 8 14 11 14 19 19 15 2 11 19 14 11 24 25 10 5 8 3 3 11 10 11 27 11 11 25 5 24 15 27 25 24 14 10 24 8 11 2 15 3 3 3 27 10 24 5 27 5 29 3 15 5 8 19 14 29 2 24 10 29 10 5 15 2 19 11 8 11 10 27 2 2 2 19 29 25 11 25 15 10 19 
